100 
300 
-0.5 0 0 0
0.5 0 0 -20
-7 -7 -35 -118
-7 -5 35 -20
-7 -3 -35 -109
-7 -1 -35 -127
-7 1 -35 -94
-7 3 35 -28
-7 5 35 -14
-7 7 -35 -104
-5 -7 -35 -118
-5 -5 -25 -83
-5 -3 25 -19
-5 -1 -25 -82
-5 1 25 -29
-5 3 25 -24
-5 5 25 -21
-5 7 35 -14
-3 -7 -35 -71
-3 -5 25 -16
-3 -3 -15 -69
-3 -1 -15 -82
-3 1 15 -12
-3 3 -15 -137
-3 5 -25 -78
-3 7 35 -29
-1 -7 -35 -61
-1 -5 -25 -96
-1 -3 -15 -76
-1 -1 -5 -68
-1 1 -5 -60
-1 3 15 -21
-1 5 -25 -136
-1 7 35 -27
1 -7 35 -15
1 -5 -25 -107
1 -3 -15 -135
1 -1 -5 -120
1 1 -5 -88
1 3 15 -27
1 5 25 -10
1 7 35 -23
3 -7 35 -14
3 -5 -25 -102
3 -3 15 -16
3 -1 -15 -95
3 1 15 -29
3 3 15 -27
3 5 25 -16
3 7 -35 -90
5 -7 35 -27
5 -5 25 -10
5 -3 -25 -105
5 -1 -25 -61
5 1 25 -12
5 3 25 -21
5 5 -25 -129
5 7 -35 -130
7 -7 35 -27
7 -5 -35 -130
7 -3 35 -13
7 -1 35 -18
7 1 -35 -125
7 3 35 -11
7 5 35 -10
7 7 35 -12
